FourierSAT_Github_AIJ/benchmarks/MAXSAT_benchmarks/crafted/3/bipartite/maxcut-140-630-0.7/maxcut-140-630-0.7-19.cnf
c strEdges: 189  randomEdges: 441 
c degrees:  2  3 
c girth: 10 max: 8.032766  
c Hgirth mixed MAXCUT instance
c generated from an undirected graph
c to solve unweighted MaxCut
p cnf 140 1260
9 99 0
-9 -99 0
9 77 0
-9 -77 0
110 85 0
-110 -85 0
110 42 0
-110 -42 0
110 44 0
-110 -44 0
38 3 0
-38 -3 0
38 120 0
-38 -120 0
64 66 0
-64 -66 0
64 118 0
-64 -118 0
89 121 0
-89 -121 0
89 135 0
-89 -135 0
31 132 0
-31 -132 0
31 3 0
-31 -3 0
31 54 0
-31 -54 0
70 26 0
-70 -26 0
70 108 0
-70 -108 0
70 11 0
-70 -11 0
129 135 0
-129 -135 0
129 61 0
-129 -61 0
62 138 0
-62 -138 0
62 51 0
-62 -51 0
62 3 0
-62 -3 0
56 126 0
-56 -126 0
56 98 0
-56 -98 0
56 86 0
-56 -86 0
111 11 0
-111 -11 0
111 116 0
-111 -116 0
111 99 0
-111 -99 0
93 51 0
-93 -51 0
93 36 0
-93 -36 0
93 67 0
-93 -67 0
127 118 0
-127 -118 0
127 54 0
-127 -54 0
127 94 0
-127 -94 0
69 116 0
-69 -116 0
69 63 0
-69 -63 0
69 35 0
-69 -35 0
128 76 0
-128 -76 0
128 39 0
-128 -39 0
128 113 0
-128 -113 0
12 113 0
-12 -113 0
12 138 0
-12 -138 0
106 94 0
-106 -94 0
106 131 0
-106 -131 0
106 42 0
-106 -42 0
112 114 0
-112 -114 0
112 50 0
-112 -50 0
112 135 0
-112 -135 0
58 45 0
-58 -45 0
58 94 0
-58 -94 0
87 57 0
-87 -57 0
87 71 0
-87 -71 0
130 43 0
-130 -43 0
130 133 0
-130 -133 0
130 14 0
-130 -14 0
8 74 0
-8 -74 0
8 107 0
-8 -107 0
8 104 0
-8 -104 0
119 37 0
-119 -37 0
119 84 0
-119 -84 0
119 43 0
-119 -43 0
72 109 0
-72 -109 0
72 125 0
-72 -125 0
72 85 0
-72 -85 0
24 63 0
-24 -63 0
24 138 0
-24 -138 0
4 71 0
-4 -71 0
4 35 0
-4 -35 0
4 86 0
-4 -86 0
139 82 0
-139 -82 0
139 65 0
-139 -65 0
20 36 0
-20 -36 0
20 84 0
-20 -84 0
20 99 0
-20 -99 0
16 44 0
-16 -44 0
16 92 0
-16 -92 0
16 90 0
-16 -90 0
83 35 0
-83 -35 0
83 131 0
-83 -131 0
83 46 0
-83 -46 0
88 86 0
-88 -86 0
88 77 0
-88 -77 0
88 107 0
-88 -107 0
19 84 0
-19 -84 0
19 121 0
-19 -121 0
19 46 0
-19 -46 0
47 92 0
-47 -92 0
47 76 0
-47 -76 0
47 117 0
-47 -117 0
115 133 0
-115 -133 0
115 26 0
-115 -26 0
115 1 0
-115 -1 0
140 39 0
-140 -39 0
140 66 0
-140 -66 0
32 103 0
-32 -103 0
32 95 0
-32 -95 0
32 97 0
-32 -97 0
40 46 0
-40 -46 0
40 103 0
-40 -103 0
40 120 0
-40 -120 0
123 108 0
-123 -108 0
123 67 0
-123 -67 0
41 120 0
-41 -120 0
41 79 0
-41 -79 0
41 44 0
-41 -44 0
75 90 0
-75 -90 0
75 10 0
-75 -10 0
75 43 0
-75 -43 0
96 54 0
-96 -54 0
96 73 0
-96 -73 0
96 37 0
-96 -37 0
30 134 0
-30 -134 0
30 116 0
-30 -116 0
30 118 0
-30 -118 0
100 50 0
-100 -50 0
100 113 0
-100 -113 0
100 37 0
-100 -37 0
23 14 0
-23 -14 0
23 134 0
-23 -134 0
23 2 0
-23 -2 0
81 13 0
-81 -13 0
81 85 0
-81 -85 0
81 63 0
-81 -63 0
7 15 0
-7 -15 0
7 125 0
-7 -125 0
7 57 0
-7 -57 0
59 2 0
-59 -2 0
59 45 0
-59 -45 0
59 109 0
-59 -109 0
101 107 0
-101 -107 0
101 66 0
-101 -66 0
101 10 0
-101 -10 0
122 53 0
-122 -53 0
122 91 0
-122 -91 0
22 79 0
-22 -79 0
22 5 0
-22 -5 0
22 50 0
-22 -50 0
29 102 0
-29 -102 0
29 114 0
-29 -114 0
29 2 0
-29 -2 0
48 97 0
-48 -97 0
48 102 0
-48 -102 0
48 73 0
-48 -73 0
27 131 0
-27 -131 0
27 1 0
-27 -1 0
124 125 0
-124 -125 0
124 121 0
-124 -121 0
49 77 0
-49 -77 0
49 114 0
-49 -114 0
18 95 0
-18 -95 0
18 15 0
-18 -15 0
18 11 0
-18 -11 0
105 80 0
-105 -80 0
105 39 0
-105 -39 0
105 95 0
-105 -95 0
136 91 0
-136 -91 0
136 82 0
-136 -82 0
21 61 0
-21 -61 0
21 53 0
-21 -53 0
78 10 0
-78 -10 0
78 65 0
-78 -65 0
52 104 0
-52 -104 0
52 109 0
-52 -109 0
52 28 0
-52 -28 0
17 73 0
-17 -73 0
17 13 0
-17 -13 0
17 53 0
-17 -53 0
6 28 0
-6 -28 0
6 5 0
-6 -5 0
68 67 0
-68 -67 0
68 117 0
-68 -117 0
68 45 0
-68 -45 0
33 65 0
-33 -65 0
33 132 0
-33 -132 0
33 57 0
-33 -57 0
25 1 0
-25 -1 0
25 74 0
-25 -74 0
25 61 0
-25 -61 0
60 5 0
-60 -5 0
60 91 0
-60 -91 0
60 98 0
-60 -98 0
34 98 0
-34 -98 0
34 80 0
-34 -80 0
34 14 0
-34 -14 0
137 42 0
-137 -42 0
137 108 0
-137 -108 0
137 126 0
-137 -126 0
55 117 0
-55 -117 0
55 82 0
-55 -82 0
19 115 0
-19 -115 0
9 108 0
-9 -108 0
115 39 0
-115 -39 0
16 97 0
-16 -97 0
93 104 0
-93 -104 0
49 52 0
-49 -52 0
127 92 0
-127 -92 0
47 41 0
-47 -41 0
81 122 0
-81 -122 0
64 56 0
-64 -56 0
43 97 0
-43 -97 0
94 107 0
-94 -107 0
76 50 0
-76 -50 0
30 82 0
-30 -82 0
30 53 0
-30 -53 0
89 11 0
-89 -11 0
21 73 0
-21 -73 0
17 117 0
-17 -117 0
84 102 0
-84 -102 0
114 35 0
-114 -35 0
118 36 0
-118 -36 0
18 5 0
-18 -5 0
87 140 0
-87 -140 0
40 61 0
-40 -61 0
3 80 0
-3 -80 0
62 73 0
-62 -73 0
24 27 0
-24 -27 0
51 117 0
-51 -117 0
138 14 0
-138 -14 0
24 83 0
-24 -83 0
7 105 0
-7 -105 0
3 92 0
-3 -92 0
127 37 0
-127 -37 0
24 53 0
-24 -53 0
92 80 0
-92 -80 0
140 101 0
-140 -101 0
49 1 0
-49 -1 0
86 53 0
-86 -53 0
20 14 0
-20 -14 0
40 6 0
-40 -6 0
140 61 0
-140 -61 0
32 78 0
-32 -78 0
64 54 0
-64 -54 0
19 55 0
-19 -55 0
64 109 0
-64 -109 0
2 104 0
-2 -104 0
69 22 0
-69 -22 0
62 69 0
-62 -69 0
20 131 0
-20 -131 0
113 42 0
-113 -42 0
25 137 0
-25 -137 0
87 80 0
-87 -80 0
32 132 0
-32 -132 0
19 105 0
-19 -105 0
62 104 0
-62 -104 0
127 84 0
-127 -84 0
48 118 0
-48 -118 0
138 39 0
-138 -39 0
68 108 0
-68 -108 0
85 77 0
-85 -77 0
93 102 0
-93 -102 0
119 82 0
-119 -82 0
94 73 0
-94 -73 0
128 43 0
-128 -43 0
134 5 0
-134 -5 0
75 11 0
-75 -11 0
140 136 0
-140 -136 0
100 21 0
-100 -21 0
78 43 0
-78 -43 0
4 122 0
-4 -122 0
70 52 0
-70 -52 0
35 134 0
-35 -134 0
128 48 0
-128 -48 0
72 120 0
-72 -120 0
31 85 0
-31 -85 0
52 91 0
-52 -91 0
110 58 0
-110 -58 0
126 104 0
-126 -104 0
128 27 0
-128 -27 0
128 63 0
-128 -63 0
106 135 0
-106 -135 0
69 92 0
-69 -92 0
129 82 0
-129 -82 0
83 74 0
-83 -74 0
130 81 0
-130 -81 0
27 65 0
-27 -65 0
88 76 0
-88 -76 0
100 63 0
-100 -63 0
81 59 0
-81 -59 0
23 74 0
-23 -74 0
58 100 0
-58 -100 0
122 74 0
-122 -74 0
135 118 0
-135 -118 0
113 44 0
-113 -44 0
49 3 0
-49 -3 0
60 45 0
-60 -45 0
138 2 0
-138 -2 0
52 57 0
-52 -57 0
87 134 0
-87 -134 0
132 54 0
-132 -54 0
105 136 0
-105 -136 0
55 43 0
-55 -43 0
78 45 0
-78 -45 0
75 116 0
-75 -116 0
49 39 0
-49 -39 0
12 21 0
-12 -21 0
38 132 0
-38 -132 0
48 74 0
-48 -74 0
17 3 0
-17 -3 0
111 33 0
-111 -33 0
41 132 0
-41 -132 0
134 80 0
-134 -80 0
52 133 0
-52 -133 0
140 23 0
-140 -23 0
22 134 0
-22 -134 0
24 15 0
-24 -15 0
59 107 0
-59 -107 0
16 125 0
-16 -125 0
75 59 0
-75 -59 0
135 117 0
-135 -117 0
137 3 0
-137 -3 0
129 138 0
-129 -138 0
41 95 0
-41 -95 0
111 101 0
-111 -101 0
83 10 0
-83 -10 0
36 84 0
-36 -84 0
57 79 0
-57 -79 0
112 101 0
-112 -101 0
105 10 0
-105 -10 0
130 74 0
-130 -74 0
138 94 0
-138 -94 0
38 96 0
-38 -96 0
46 102 0
-46 -102 0
9 14 0
-9 -14 0
35 104 0
-35 -104 0
100 102 0
-100 -102 0
11 80 0
-11 -80 0
29 76 0
-29 -76 0
4 78 0
-4 -78 0
110 37 0
-110 -37 0
35 5 0
-35 -5 0
34 113 0
-34 -113 0
136 94 0
-136 -94 0
75 48 0
-75 -48 0
51 1 0
-51 -1 0
31 90 0
-31 -90 0
66 98 0
-66 -98 0
111 6 0
-111 -6 0
92 15 0
-92 -15 0
9 2 0
-9 -2 0
4 22 0
-4 -22 0
128 59 0
-128 -59 0
33 113 0
-33 -113 0
3 65 0
-3 -65 0
107 65 0
-107 -65 0
30 117 0
-30 -117 0
96 81 0
-96 -81 0
105 121 0
-105 -121 0
70 112 0
-70 -112 0
136 65 0
-136 -65 0
109 36 0
-109 -36 0
85 138 0
-85 -138 0
99 54 0
-99 -54 0
38 14 0
-38 -14 0
7 118 0
-7 -118 0
48 27 0
-48 -27 0
121 51 0
-121 -51 0
94 46 0
-94 -46 0
88 17 0
-88 -17 0
38 80 0
-38 -80 0
119 100 0
-119 -100 0
31 35 0
-31 -35 0
129 10 0
-129 -10 0
29 60 0
-29 -60 0
119 74 0
-119 -74 0
12 43 0
-12 -43 0
127 60 0
-127 -60 0
102 1 0
-102 -1 0
34 134 0
-34 -134 0
75 126 0
-75 -126 0
9 124 0
-9 -124 0
92 91 0
-92 -91 0
130 115 0
-130 -115 0
87 22 0
-87 -22 0
102 80 0
-102 -80 0
122 37 0
-122 -37 0
89 75 0
-89 -75 0
56 80 0
-56 -80 0
112 73 0
-112 -73 0
26 80 0
-26 -80 0
116 120 0
-116 -120 0
17 45 0
-17 -45 0
87 1 0
-87 -1 0
30 22 0
-30 -22 0
74 39 0
-74 -39 0
114 125 0
-114 -125 0
21 135 0
-21 -135 0
18 77 0
-18 -77 0
20 44 0
-20 -44 0
81 82 0
-81 -82 0
118 5 0
-118 -5 0
78 36 0
-78 -36 0
75 107 0
-75 -107 0
93 8 0
-93 -8 0
56 94 0
-56 -94 0
60 121 0
-60 -121 0
8 81 0
-8 -81 0
31 46 0
-31 -46 0
138 114 0
-138 -114 0
137 95 0
-137 -95 0
18 113 0
-18 -113 0
69 36 0
-69 -36 0
106 53 0
-106 -53 0
19 45 0
-19 -45 0
38 33 0
-38 -33 0
127 39 0
-127 -39 0
81 121 0
-81 -121 0
78 84 0
-78 -84 0
64 39 0
-64 -39 0
63 92 0
-63 -92 0
26 82 0
-26 -82 0
8 54 0
-8 -54 0
120 117 0
-120 -117 0
58 60 0
-58 -60 0
139 39 0
-139 -39 0
81 46 0
-81 -46 0
130 94 0
-130 -94 0
9 88 0
-9 -88 0
93 86 0
-93 -86 0
19 138 0
-19 -138 0
96 103 0
-96 -103 0
38 127 0
-38 -127 0
100 66 0
-100 -66 0
23 45 0
-23 -45 0
86 91 0
-86 -91 0
34 66 0
-34 -66 0
122 86 0
-122 -86 0
84 13 0
-84 -13 0
100 48 0
-100 -48 0
31 104 0
-31 -104 0
120 14 0
-120 -14 0
38 66 0
-38 -66 0
127 81 0
-127 -81 0
83 100 0
-83 -100 0
86 1 0
-86 -1 0
29 52 0
-29 -52 0
68 74 0
-68 -74 0
111 105 0
-111 -105 0
31 68 0
-31 -68 0
94 82 0
-94 -82 0
52 60 0
-52 -60 0
52 79 0
-52 -79 0
56 92 0
-56 -92 0
89 40 0
-89 -40 0
31 18 0
-31 -18 0
45 14 0
-45 -14 0
39 134 0
-39 -134 0
57 37 0
-57 -37 0
114 2 0
-114 -2 0
115 41 0
-115 -41 0
21 121 0
-21 -121 0
66 138 0
-66 -138 0
30 138 0
-30 -138 0
122 35 0
-122 -35 0
85 65 0
-85 -65 0
132 131 0
-132 -131 0
48 60 0
-48 -60 0
64 105 0
-64 -105 0
22 113 0
-22 -113 0
119 103 0
-119 -103 0
52 63 0
-52 -63 0
17 94 0
-17 -94 0
21 74 0
-21 -74 0
116 28 0
-116 -28 0
82 36 0
-82 -36 0
110 52 0
-110 -52 0
96 108 0
-96 -108 0
100 80 0
-100 -80 0
82 44 0
-82 -44 0
8 134 0
-8 -134 0
79 91 0
-79 -91 0
90 134 0
-90 -134 0
6 36 0
-6 -36 0
17 61 0
-17 -61 0
64 25 0
-64 -25 0
58 54 0
-58 -54 0
30 18 0
-30 -18 0
130 126 0
-130 -126 0
32 133 0
-32 -133 0
83 17 0
-83 -17 0
95 1 0
-95 -1 0
27 79 0
-27 -79 0
95 80 0
-95 -80 0
72 95 0
-72 -95 0
68 34 0
-68 -34 0
123 54 0
-123 -54 0
41 98 0
-41 -98 0
119 48 0
-119 -48 0
31 37 0
-31 -37 0
27 54 0
-27 -54 0
135 46 0
-135 -46 0
23 36 0
-23 -36 0
48 133 0
-48 -133 0
62 98 0
-62 -98 0
9 6 0
-9 -6 0
9 19 0
-9 -19 0
88 41 0
-88 -41 0
115 55 0
-115 -55 0
78 6 0
-78 -6 0
119 5 0
-119 -5 0
56 17 0
-56 -17 0
22 120 0
-22 -120 0
31 127 0
-31 -127 0
59 27 0
-59 -27 0
24 17 0
-24 -17 0
59 104 0
-59 -104 0
119 15 0
-119 -15 0
58 140 0
-58 -140 0
49 91 0
-49 -91 0
85 50 0
-85 -50 0
113 92 0
-113 -92 0
20 122 0
-20 -122 0
69 17 0
-69 -17 0
119 59 0
-119 -59 0
122 14 0
-122 -14 0
23 48 0
-23 -48 0
57 74 0
-57 -74 0
21 90 0
-21 -90 0
116 57 0
-116 -57 0
44 133 0
-44 -133 0
87 115 0
-87 -115 0
56 45 0
-56 -45 0
40 25 0
-40 -25 0
68 98 0
-68 -98 0
96 61 0
-96 -61 0
126 94 0
-126 -94 0
121 103 0
-121 -103 0
87 126 0
-87 -126 0
62 99 0
-62 -99 0
72 25 0
-72 -25 0
129 96 0
-129 -96 0
4 120 0
-4 -120 0
26 39 0
-26 -39 0
38 8 0
-38 -8 0
7 101 0
-7 -101 0
135 1 0
-135 -1 0
72 55 0
-72 -55 0
74 35 0
-74 -35 0
38 126 0
-38 -126 0
124 42 0
-124 -42 0
9 18 0
-9 -18 0
23 54 0
-23 -54 0
114 77 0
-114 -77 0
114 73 0
-114 -73 0
139 83 0
-139 -83 0
105 109 0
-105 -109 0
96 84 0
-96 -84 0
81 133 0
-81 -133 0
128 126 0
-128 -126 0
40 132 0
-40 -132 0
31 60 0
-31 -60 0
124 18 0
-124 -18 0
94 57 0
-94 -57 0
23 21 0
-23 -21 0
69 138 0
-69 -138 0
121 132 0
-121 -132 0
94 54 0
-94 -54 0
20 59 0
-20 -59 0
59 125 0
-59 -125 0
52 68 0
-52 -68 0
90 42 0
-90 -42 0
78 51 0
-78 -51 0
29 107 0
-29 -107 0
89 50 0
-89 -50 0
62 5 0
-62 -5 0
8 96 0
-8 -96 0
23 125 0
-23 -125 0
39 65 0
-39 -65 0
106 81 0
-106 -81 0
84 65 0
-84 -65 0
12 47 0
-12 -47 0
17 74 0
-17 -74 0
56 93 0
-56 -93 0
38 140 0
-38 -140 0
140 2 0
-140 -2 0
75 21 0
-75 -21 0
50 73 0
-50 -73 0
72 48 0
-72 -48 0
110 122 0
-110 -122 0
41 131 0
-41 -131 0
49 76 0
-49 -76 0
119 68 0
-119 -68 0
106 60 0
-106 -60 0
25 132 0
-25 -132 0
46 79 0
-46 -79 0
38 54 0
-38 -54 0
74 90 0
-74 -90 0
101 131 0
-101 -131 0
52 138 0
-52 -138 0
130 104 0
-130 -104 0
38 118 0
-38 -118 0
140 44 0
-140 -44 0
34 132 0
-34 -132 0
21 125 0
-21 -125 0
31 130 0
-31 -130 0
134 50 0
-134 -50 0
94 92 0
-94 -92 0
137 97 0
-137 -97 0
87 25 0
-87 -25 0
34 26 0
-34 -26 0
135 54 0
-135 -54 0
136 121 0
-136 -121 0
126 98 0
-126 -98 0
96 136 0
-96 -136 0
119 65 0
-119 -65 0
2 98 0
-2 -98 0
72 28 0
-72 -28 0
140 138 0
-140 -138 0
55 77 0
-55 -77 0
62 20 0
-62 -20 0
64 119 0
-64 -119 0
100 79 0
-100 -79 0
122 104 0
-122 -104 0
83 91 0
-83 -91 0
140 74 0
-140 -74 0
7 102 0
-7 -102 0
48 82 0
-48 -82 0
20 52 0
-20 -52 0
115 3 0
-115 -3 0
70 42 0
-70 -42 0
140 28 0
-140 -28 0
121 118 0
-121 -118 0
24 52 0
-24 -52 0
130 134 0
-130 -134 0
140 18 0
-140 -18 0
75 84 0
-75 -84 0
16 122 0
-16 -122 0
111 136 0
-111 -136 0
113 67 0
-113 -67 0
50 125 0
-50 -125 0
32 30 0
-32 -30 0
