FourierSAT_Github_AIJ/res/fs_1core/maxcut-140-630-0.7-19.cnf.txt
o 182
o 178
